p cnf 110 387
-4 2 0
-4 3 0
-2 -3 4 0
-1 -4 -5 0
1 4 -5 0
-1 4 5 0
1 -4 5 0
6 -7 -8 0
-6 7 -8 0
6 7 8 0
-6 -7 8 0
6 -9 -10 0
-6 9 -10 0
6 9 10 0
-6 -9 10 0
11 -8 0
11 10 0
8 -10 -11 0
-13 12 0
-13 -6 0
-12 6 13 0
14 -9 0
14 -13 0
9 13 -14 0
14 7 -15 0
-14 -7 -15 0
14 -7 15 0
-14 7 15 0
16 11 0
16 15 0
-11 -15 -16 0
-17 -5 0
-17 -16 0
5 16 17 0
-19 18 0
-19 7 0
-18 -7 19 0
-20 19 0
-20 -2 0
-19 2 20 0
-6 20 -21 0
6 -20 -21 0
-6 -20 21 0
6 20 21 0
-23 -22 0
-23 9 0
22 -9 23 0
-24 -23 0
-24 -13 0
23 13 24 0
-25 24 0
-25 2 0
-24 -2 25 0
26 21 0
26 25 0
-21 -25 -26 0
-27 -17 0
-27 26 0
17 -26 27 0
-29 9 -30 0
29 -9 -30 0
-29 -9 30 0
29 9 30 0
28 30 -31 0
-28 -30 -31 0
28 -30 31 0
-28 30 31 0
32 31 0
32 31 0
-31 -32 0
-34 28 0
-34 33 0
-28 -33 34 0
35 34 0
35 13 0
-34 -13 -35 0
2 22 -36 0
-2 -22 -36 0
2 -22 36 0
-2 22 36 0
-37 35 0
-37 36 0
-35 -36 37 0
32 -37 -38 0
-32 37 -38 0
32 37 38 0
-32 -37 38 0
39 38 0
39 2 0
-38 -2 -39 0
-14 1 -40 0
14 -1 -40 0
-14 -1 40 0
14 1 40 0
10 40 -41 0
-10 -40 -41 0
10 -40 41 0
-10 40 41 0
-39 -41 -42 0
39 41 -42 0
-39 41 42 0
39 -41 42 0
-3 -7 -43 0
3 7 -43 0
-3 7 43 0
3 -7 43 0
-44 43 0
-44 -19 0
-43 19 44 0
-45 28 0
-45 -44 0
-28 44 45 0
-46 -42 0
-46 45 0
42 -45 46 0
-47 2 0
-47 -3 0
-2 3 47 0
47 18 -48 0
-47 -18 -48 0
47 -18 48 0
-47 18 48 0
-49 -46 0
-49 48 0
46 -48 49 0
-50 27 0
-50 49 0
-27 -49 50 0
-51 -47 0
-51 14 0
47 -14 51 0
52 14 0
52 -23 0
-14 23 -52 0
-23 18 -53 0
23 -18 -53 0
-23 -18 53 0
23 18 53 0
53 10 -54 0
-53 -10 -54 0
53 -10 54 0
-53 10 54 0
-54 -31 -55 0
54 31 -55 0
-54 31 55 0
54 -31 55 0
-56 -52 0
-56 -55 0
52 55 56 0
57 -51 0
57 -56 0
51 56 -57 0
-58 24 0
-58 1 0
-24 -1 58 0
59 6 0
59 58 0
-6 -58 -59 0
-60 59 0
-60 -20 0
-59 20 60 0
-61 -28 0
-61 24 0
28 -24 61 0
9 4 -62 0
-9 -4 -62 0
9 -4 62 0
-9 4 62 0
63 61 0
63 -62 0
-61 62 -63 0
60 63 -64 0
-60 -63 -64 0
60 -63 64 0
-60 63 64 0
-9 25 -65 0
9 -25 -65 0
-9 -25 65 0
9 25 65 0
66 20 0
66 65 0
-20 -65 -66 0
-67 -64 0
-67 66 0
64 -66 67 0
-28 61 -68 0
28 -61 -68 0
-28 -61 68 0
28 61 68 0
-4 62 -69 0
4 -62 -69 0
-4 -62 69 0
4 62 69 0
-68 69 -70 0
68 -69 -70 0
-68 -69 70 0
68 69 70 0
-71 -67 0
-71 -70 0
67 70 71 0
-72 -57 0
-72 -71 0
57 71 72 0
-73 50 0
-73 -72 0
-50 72 73 0
74 4 0
74 -14 0
-4 14 -74 0
-74 -43 -75 0
74 43 -75 0
-74 43 75 0
74 -43 75 0
-77 54 0
-77 76 0
-54 -76 77 0
78 -75 0
78 77 0
75 -77 -78 0
-79 58 0
-79 -7 0
-58 7 79 0
80 -12 0
80 -3 0
12 3 -80 0
81 35 0
81 -80 0
-35 80 -81 0
-82 -9 0
-82 4 0
9 -4 82 0
25 82 -83 0
-25 -82 -83 0
25 -82 83 0
-25 82 83 0
-84 81 0
-84 83 0
-81 -83 84 0
-85 -79 0
-85 84 0
79 -84 85 0
-86 -62 0
-86 9 0
62 -9 86 0
80 -22 -87 0
-80 22 -87 0
80 22 87 0
-80 -22 87 0
-82 -87 -88 0
82 87 -88 0
-82 87 88 0
82 -87 88 0
-86 -88 -89 0
86 88 -89 0
-86 88 89 0
86 -88 89 0
90 85 0
90 89 0
-85 -89 -90 0
-78 90 -91 0
78 -90 -91 0
-78 -90 91 0
78 90 91 0
1 -54 -92 0
-1 54 -92 0
1 54 92 0
-1 -54 92 0
-93 -25 0
-93 65 0
25 -65 93 0
-94 -93 0
-94 -87 0
93 87 94 0
-92 -94 -95 0
92 94 -95 0
-92 94 95 0
92 -94 95 0
96 25 0
96 -35 0
-25 35 -96 0
-97 -20 0
-97 30 0
20 -30 97 0
98 97 0
98 3 0
-97 -3 -98 0
99 62 0
99 98 0
-62 -98 -99 0
-100 22 0
-100 99 0
-22 -99 100 0
-101 40 0
-101 54 0
-40 -54 101 0
-102 100 0
-102 101 0
-100 -101 102 0
-96 -102 -103 0
96 102 -103 0
-96 102 103 0
96 -102 103 0
104 95 0
104 103 0
-95 -103 -104 0
-106 -105 0
-106 -33 0
105 33 106 0
-106 21 -107 0
106 -21 -107 0
-106 -21 107 0
106 21 107 0
108 104 0
108 107 0
-104 -107 -108 0
109 -91 0
109 -108 0
91 108 -109 0
-73 109 -110 0
73 -109 -110 0
-73 -109 110 0
73 109 110 0
70 -49 0
94 -62 -6 0
-103 29 75 0
81 28 -12 -32 95 0
70 77 -67 0
82 30 26 55 -89 0
54 -71 101 -96 51 0
21 -35 91 -42 15 0
85 -75 0
71 49 81 0
23 71 3 0
-28 -66 -61 0
-2 -93 6 -25 0
76 33 61 72 95 0
-42 -40 -8 0
-6 -38 -22 0
13 28 88 63 32 0
-94 -2 -1 31 0
107 64 0
11 -19 -104 33 67 0
83 -86 77 -26 0
-61 103 -41 -2 110 11 0
-13 107 -85 42 0
54 -96 -32 56 -71 109 0
13 -90 -17 0
-92 33 -107 0
-69 79 91 -87 50 0
86 37 88 0
-49 59 0
43 -87 -19 -83 0
39 -59 -85 0
-28 -4 -8 0
102 -67 56 62 9 -5 0
6 -22 -82 0
7 27 96 -73 77 0
3 71 0
110 52 -32 0
97 24 0
61 45 72 -39 -78 -6 0
23 81 -71 -37 28 -59 0
23 43 82 16 9 31 0
89 52 70 18 -79 0
-20 -47 -4 94 0
18 -81 57 -24 -80 0
62 107 -65 0
-74 -76 -21 0
73 17 0
-61 -21 64 0
-102 -31 0
-86 -77 -48 18 91 79 0
-97 14 0
8 43 -82 83 51 78 0
-77 9 0
-88 95 36 43 -60 0
-43 -17 9 108 -91 -96 0
13 28 -3 -66 -9 20 0
77 -36 75 -72 -9 0
-109 102 95 -8 0
-7 -23 5 -58 0
-61 -105 -93 -63 0
16 -63 -40 -86 0
-8 59 26 92 0
-52 -13 0
35 13 1 62 0
110 0
